Optimal - objective value -986.00000000
      8 x_8                    1                     -95
     10 x_10                   1                     -87
     14 x_14                   1                     -76
     27 x_27                   1                     -84
     28 x_28                   1                     -90
     36 x_36                   1                     -98
     44 x_44                   1                     -98
     50 x_50                   1                     -46
     55 x_55                   1                     -73
     64 x_64                   1                     -80
     65 x_65                   1                     -47
     68 x_68                   1                     -91
